Traveling Salesman Problem/TSP_generados/Aleatorio1621103512_15.tsp
NAME: Aleatorio1621103512_15.tsp
COMMENT: Randomly generated scenario
TYPE: TSP
DIMENSION: 15
EDGE_WEIGHT_TYPE: ATT
NODE_COORD_SECTION
1 15.74 38.86
2 10.65 14.9
3 19.67 12.07
4 16.0 27.53
5 38.99 13.35
6 37.53 42.48
7 0.62 34.81
8 22.2 42.15
9 7.83 49.29
10 32.25 33.12
11 38.39 30.31
12 8.88 18.15
13 47.39 47.33
14 37.96 35.74
15 21.68 26.99
