Traveling Salesman Problem/TSP_generados/Aleatorio1621103512_15.opt.tour
NAME: Aleatorio1621103512_15.opt.tour
COMMENT: Optimal solution for Aleatorio1621103512_15 (178.57847003695903)
TYPE: TOUR
DIMENSION: 15
TOUR_SECTION
1 9 7 4 15 12 2 3 5 11 10 14 13 6 8
-1
EOF
